; benchmark generated from python API
(set-info :status unknown)
(declare-fun S_4 () Real)
(declare-fun S_5 () Real)
(declare-fun C () Real)
(declare-fun S_3 () Real)
(declare-fun S_1 () Real)
(declare-fun S_0 () Real)
(declare-fun A_0 () Real)
(declare-fun L_0 () Real)
(declare-fun L0 () Real)
(declare-fun A_5 () Real)
(declare-fun L_5 () Real)
(declare-fun B () Real)
(declare-fun A_4 () Real)
(declare-fun A_1 () Real)
(declare-fun L_2 () Real)
(declare-fun L_3 () Real)
(declare-fun S_2 () Real)
(declare-fun L_1 () Real)
(declare-fun A_2 () Real)
(declare-fun A_3 () Real)
(declare-fun L_4 () Real)
(assert
 (let (($x42 (>= L0 0.0)))
 (let (($x695 (>= C 5.0)))
 (let ((?x335 (* (- 1.0) C)))
 (let ((?x253 (* (- 1.0) L_5)))
 (let ((?x630 (* (- 1.0) B)))
 (let ((?x14050 (+ ?x630 ?x253 A_5 ?x335)))
 (let (($x14634 (<= (+ A_4 (* (- 1.0) L_0)) ?x14050)))
 (let (($x14438 (<= (+ A_1 (* (- 1.0) L_0) L_5 (* (- 1.0) A_5) (* 4.0 C)) 0.0)))
 (let (($x1532 (not (<= L_2 L_0))))
 (let (($x1359 (= L_5 L_3)))
 (let (($x26738 (or (= (+ A_5 ?x253 ?x630) (+ A_4 (* (- 1.0) L_0) C)) (not $x14634))))
 (let (($x1799 (<= L_2 L_1)))
 (let (($x1188 (not $x1799)))
 (let (($x1005 (not (<= L_1 L_0))))
 (let (($x25478 (or $x1005 $x1188 $x1359 (<= S_2 (+ ?x630 ?x253 A_5 (* (- 3.0) C))) $x14634)))
 (let (($x26412 (or $x1005 $x1188 $x1359 (<= S_1 (+ ?x630 ?x253 A_5 (* (- 4.0) C))) $x14634)))
 (let (($x15012 (<= 0.0 (+ C (* (- 1.0) A_1) L_0 S_0))))
 (let (($x26661 (or $x1005 $x1188 $x1359 (<= S_0 (+ ?x630 ?x253 A_5 (* (- 5.0) C))) $x14634 $x15012)))
 (let (($x15015 (not $x15012)))
 (let (($x9506 (= L_5 L_0)))
 (let (($x4412 (not (= L_0 L_3))))
 (let (($x26638 (or $x4412 $x9506 $x14634 $x15015 (not (<= (+ A_4 (* (- 1.0) A_1) (* (- 3.0) C)) 0.0)))))
 (let (($x14960 (<= (+ A_2 (* (- 1.0) L_0) L_5 (* (- 1.0) A_5) (* 3.0 C)) 0.0)))
 (let (($x14592 (= (+ (* (- 4.0) C) ?x630 (* (- 1.0) A_1) A_5 ?x253 L_0) 0.0)))
 (let ((?x4005 (* (- 4.0) C)))
 (let ((?x14202 (+ ?x630 ?x253 A_5 ?x4005)))
 (let ((?x690 (* (- 1.0) L_0)))
 (let ((?x1063 (+ A_1 ?x690)))
 (let (($x14351 (<= ?x1063 ?x14202)))
 (let (($x14754 (<= (+ A_4 (* (- 1.0) A_1) (* (- 3.0) C)) 0.0)))
 (let (($x1451 (not (= L_3 L_5))))
 (let (($x18429 (or (<= (+ C ?x690 A_1 (* (- 1.0) S_3)) 0.0) (<= (+ (* 2.0 C) (* (- 1.0) S_3) S_0) 0.0))))
 (let (($x17467 (or (<= (+ (* 2.0 C) ?x690 A_1 (* (- 1.0) S_4)) 0.0) (<= (+ (* 3.0 C) S_0 (* (- 1.0) S_4)) 0.0))))
 (let (($x1534 (not (<= L_3 L_2))))
 (let (($x26061 (or $x1451 $x1532 $x1534 (<= (+ ?x630 (* (- 1.0) A_1) A_5 ?x4005) 0.0))))
 (let (($x2398 (not (= L_2 L_5))))
 (let (($x25383 (or $x1005 $x1188 $x1359 (<= S_3 (+ ?x630 ?x253 A_5 (* (- 2.0) C))) $x14634)))
 (let (($x25758 (or (<= (+ A_1 ?x690 (* (- 1.0) S_2)) 0.0) (<= (+ C (* (- 1.0) S_2) S_0) 0.0))))
 (let (($x15496 (or $x4412 $x9506 (<= (+ A_3 ?x690 L_5 (* (- 1.0) A_5) (* 2.0 C)) 0.0))))
 (let (($x6872 (= L_3 L_0)))
 (let (($x3859 (not (= L_0 L_2))))
 (let (($x26166 (or $x3859 $x6872 (<= (+ A_1 ?x690 L_3 (* (- 1.0) A_3) (* 2.0 C)) 0.0))))
 (let (($x949 (= L_3 L_1)))
 (let (($x732 (not (= L_1 L_2))))
 (let (($x25861 (or $x732 $x949 (<= S_1 (+ ?x630 (* (- 1.0) L_3) A_3 (* (- 2.0) C))))))
 (let (($x26192 (or $x732 $x949 $x1005 (<= (+ A_2 ?x690 L_3 (* (- 1.0) A_3) C) 0.0))))
 (let (($x18560 (or (not (<= ?x1063 (+ ?x630 (* (- 1.0) L_3) A_3 (* (- 2.0) C)))) (= (+ (* 2.0 C) L_3 (* (- 1.0) A_3) B ?x690 A_1) 0.0))))
 (let ((?x1325 (* (- 2.0) C)))
 (let ((?x396 (* (- 1.0) L_3)))
 (let ((?x13979 (+ ?x630 ?x396 A_3 ?x1325)))
 (let (($x14150 (<= ?x1063 ?x13979)))
 (let (($x59 (= L_1 L_0)))
 (let (($x649 (not (= L_2 L_3))))
 (let (($x13831 (<= (+ A_5 (* (- 1.0) A_2) (* (- 3.0) C)) 0.0)))
 (let (($x13863 (or $x59 (= (+ A_3 ?x396) (+ A_1 (* (- 1.0) L_1) (* 2.0 C))) $x732 $x949)))
 (let (($x4729 (= L_5 L_1)))
 (let (($x3692 (not (= L_1 L_3))))
 (let (($x25476 (or $x3692 $x4729 (not (<= A_4 (+ A_1 ?x630 (* 3.0 C)))) (= (+ A_5 ?x253 ?x630) (+ A_4 (* (- 1.0) L_1) C)))))
 (let (($x14069 (<= A_4 (+ A_1 ?x630 (* 3.0 C)))))
 (let (($x26343 (or $x59 $x1188 $x1359 $x14069 (= (+ A_5 ?x253) (+ A_1 (* (- 1.0) L_1) (* 4.0 C))))))
 (let (($x79 (= L_3 L_2)))
 (let (($x1410 (not (= L_0 L_1))))
 (let (($x1368 (= L_2 L_0)))
 (let (($x13887 (or $x1368 $x1410 (<= (+ A_1 ?x690 L_2 (* (- 1.0) A_2) C) 0.0))))
 (let (($x69 (= L_2 L_1)))
 (let (($x2486 (= L_5 L_2)))
 (let (($x26588 (or $x2486 (= (+ A_5 ?x253 ?x630) (+ A_4 (* (- 1.0) L_2) C)) (not (<= A_4 (+ A_2 ?x630 (* 2.0 C)))))))
 (let (($x13013 (<= (+ A_5 (* (- 1.0) A_3) ?x1325) 0.0)))
 (let (($x16919 (or $x1451 $x1799 $x13013 (not (= (+ A_3 ?x396) (+ A_2 (* (- 1.0) L_2) C))))))
 (let (($x13820 (= (+ ?x335 A_2 (* (- 1.0) L_2) ?x630 (* (- 1.0) A_1) L_0) 0.0)))
 (let ((?x569 (* (- 1.0) L_2)))
 (let ((?x13683 (+ ?x630 ?x569 A_2 ?x335)))
 (let (($x12969 (<= ?x1063 ?x13683)))
 (let (($x13502 (<= A_4 (+ A_2 ?x630 (* 2.0 C)))))
 (let (($x25397 (or $x1359 $x1799 $x13502 (= (+ A_5 ?x253) (+ A_2 ?x569 (* 3.0 C))))))
 (let (($x89 (= L_4 L_3)))
 (let (($x41 (>= L_0 L0)))
 (let (($x131 (>= S_1 S_0)))
 (let (($x134 (>= S_2 S_1)))
 (let (($x137 (>= S_3 S_2)))
 (let (($x140 (>= S_4 S_3)))
 (let (($x145 (>= A_1 A_0)))
 (let (($x147 (>= A_3 A_2)))
 (let (($x148 (>= A_4 A_3)))
 (and (<= (+ A_4 (* (- 1.0) L_4)) S_5) (<= (+ A_1 (* (- 1.0) L_1)) S_4) $x148 $x147 $x145 $x140 $x137 $x134 $x131 $x41 $x89 (or (= L_5 L_4) (<= S_5 (+ A_5 ?x253 ?x630))) (>= S_2 (+ A_1 (* (- 1.0) L_1) ?x630)) (or $x649 (>= S_4 (+ A_3 ?x569 ?x630))) (>= S_4 (+ A_3 ?x396 ?x630)) (or (not (<= L_5 L_3)) $x1359) (or $x79 (<= S_3 (+ A_3 ?x396 ?x630))) (or $x59 $x1005) (>= S_1 (+ ?x630 (* (- 1.0) L_1) A_1 ?x335)) (or $x59 (<= S_1 (+ A_1 (* (- 1.0) L_1) ?x630))) (>= S_0 (+ ?x630 (* (- 1.0) L_1) A_1 ?x1325)) (<= (+ ?x630 (* (- 1.0) L_1) A_1 ?x335) (+ A_0 ?x690)) (or $x69 (<= S_2 (+ A_2 ?x569 ?x630))) (or $x69 $x79 (= (+ A_3 ?x396) (+ A_2 ?x569 C))) (or $x79 $x1534) (or $x59 (<= S_0 (+ ?x630 (* (- 1.0) L_1) A_1 ?x335))) (or $x69 $x1188) (or $x59 $x1799 (= (+ A_2 ?x569) (+ A_1 (* (- 1.0) L_1) C))) (or $x69 (<= S_3 (+ A_2 ?x569 ?x630 C))) (or $x69 $x649 (<= (+ A_3 (* (- 1.0) A_2) ?x335) 0.0)) (<= S_5 (+ A_5 ?x396)) (>= S_3 (+ A_2 ?x569 ?x630)) $x25397 (or $x69 $x12969 (<= S_0 (+ ?x630 ?x569 A_2 ?x1325))) (or $x69 (<= S_1 ?x13683)) (>= S_0 (+ ?x630 ?x569 A_2 (* (- 3.0) C))) (<= (+ ?x630 ?x569 A_2 ?x1325) (+ A_0 ?x690)) (>= S_1 (+ ?x630 ?x569 A_2 ?x1325)) (or (not $x12969) $x13820) (or $x69 (<= S_4 (+ A_2 ?x569 ?x630 (* 2.0 C)))) $x16919 (not (<= (+ A_2 ?x569) S_4)) (>= S_2 ?x13683) (>= S_4 (+ A_2 ?x569 ?x630 C)) $x26588 (or $x69 (<= S_5 (+ A_2 ?x569 ?x630 (* 3.0 C)))) (or $x69 $x1451 $x1534 $x13831) (or $x2398 (<= (+ A_5 (* (- 1.0) A_4) ?x335) B)) $x13887 (or $x79 $x1359 (= (+ A_5 ?x253) (+ A_3 ?x396 (* 2.0 C)))) (or $x79 (<= S_5 (+ A_3 ?x396 ?x630 (* 2.0 C)))) (or $x59 (<= S_2 (+ A_1 (* (- 1.0) L_1) ?x630 C))) (or $x79 (<= S_2 (+ ?x630 ?x396 A_3 ?x335))) (>= S_3 (+ A_1 (* (- 1.0) L_1) ?x630 C)) (>= S_4 (+ A_1 (* (- 1.0) L_1) ?x630 (* 2.0 C))) $x26343 $x25476 (or $x59 (<= S_3 (+ A_1 (* (- 1.0) L_1) ?x630 (* 2.0 C)))) (or (= L_5 L_4) (<= S_4 ?x14050)) (or $x59 (<= S_4 (+ A_1 (* (- 1.0) L_1) ?x630 (* 3.0 C)))) (or $x59 (<= S_5 (+ A_1 (* (- 1.0) L_1) ?x630 (* 4.0 C)))) $x13863 (or $x732 $x949 $x1451 $x13013) (or $x59 $x2398 $x13831 (<= (+ A_5 (* (- 1.0) A_1) ?x4005) 0.0)) (or $x59 $x649 $x1188 (<= (+ A_3 (* (- 1.0) A_1) ?x1325) 0.0)) (or $x59 (<= (+ A_2 (* (- 1.0) A_1) ?x335) 0.0) $x732) (<= (+ (* (- 1.0) A_1) L_0 S_1) 0.0) (<= (+ ?x630 ?x396 A_3 (* (- 3.0) C)) (+ A_0 ?x690)) (>= S_1 (+ ?x630 ?x396 A_3 (* (- 3.0) C))) (>= S_3 (+ ?x630 ?x396 A_3 ?x335)) (or $x732 $x949 (<= S_0 (+ ?x630 ?x396 A_3 (* (- 3.0) C))) $x14150) $x18560 (>= S_0 (+ ?x630 ?x396 A_3 ?x4005)) $x26192 (>= S_2 ?x13979) $x25861 $x26166 (<= (+ ?x1325 S_1 (* (- 1.0) S_0)) 0.0) (<= (+ ?x335 L_0 S_1 (* (- 1.0) A_0)) 0.0) (<= (+ (* 2.0 C) S_1 (* (- 1.0) S_4)) 0.0) (<= (+ ?x335 L_0 (* (- 1.0) A_1) S_2) 0.0) (<= (+ ?x1325 L_0 (* (- 1.0) A_1) S_3) 0.0) (<= (+ ?x1325 (* (- 1.0) S_2) S_3) 0.0) (<= (+ (* (- 3.0) C) L_0 (* (- 1.0) A_0) S_3) 0.0) (<= (+ C S_2 (* (- 1.0) S_4)) 0.0) (<= (+ ?x1325 L_0 (* (- 1.0) A_0) S_2) 0.0) (<= (+ (* (- 3.0) C) (* (- 1.0) S_1) S_3) 0.0) $x15496 (<= (+ (* (- 3.0) C) S_2 (* (- 1.0) S_0)) 0.0) (<= S_5 (+ A_4 ?x569 C)) $x25758 (<= (+ ?x4005 S_3 (* (- 1.0) S_0)) 0.0) (>= S_4 (+ ?x630 ?x253 A_5 ?x1325)) (<= (+ ?x630 ?x253 A_5 (* (- 5.0) C)) (+ A_0 ?x690)) $x25383 (<= (+ ?x1325 (* (- 1.0) S_1) S_2) 0.0) (or $x2398 (>= S_2 (+ ?x630 ?x569 A_5 ?x4005))) (or $x2398 (>= S_0 (+ ?x630 ?x569 A_5 (* (- 6.0) C)))) $x26061 $x17467 $x18429 (<= (+ (* (- 3.0) C) (* (- 1.0) S_3) S_5) 0.0) (<= (+ (* (- 5.0) C) L_0 (* (- 1.0) A_0) S_5) 0.0) (or $x1451 (>= S_3 (+ ?x630 ?x396 A_5 (* (- 3.0) C)))) (or $x1451 (>= S_1 (+ ?x630 ?x396 A_5 (* (- 5.0) C)))) (<= (+ ?x1325 (* (- 1.0) S_3) S_4) 0.0) (<= (+ (* (- 3.0) C) (* (- 1.0) S_2) S_4) 0.0) (<= (+ ?x4005 (* (- 1.0) S_2) S_5) 0.0) (<= (+ ?x4005 L_0 (* (- 1.0) A_0) S_4) 0.0) (<= (+ (* (- 3.0) C) (* (- 1.0) A_1) L_0 S_4) 0.0) (<= (+ (* (- 6.0) C) (* (- 1.0) S_0) S_5) 0.0) (<= (+ L_0 (* (- 1.0) A_1) ?x4005 S_5) 0.0) (<= (+ ?x4005 (* (- 1.0) S_1) S_4) 0.0) (>= S_1 (+ ?x630 ?x253 A_5 (* (- 5.0) C))) (or $x1359 $x1532 $x14351 $x14754 $x15015) (>= S_2 ?x14202) (>= S_3 (+ ?x630 ?x253 A_5 (* (- 3.0) C))) (>= S_0 (+ ?x630 ?x253 A_5 (* (- 6.0) C))) (or (not $x14351) $x14592) (<= (+ (* (- 5.0) C) (* (- 1.0) S_1) S_5) 0.0) (<= (+ (* (- 5.0) C) (* (- 1.0) S_0) S_4) 0.0) (or $x1005 (not (<= L_3 L_1)) $x1359 $x14634 $x14960) $x26638 $x26661 $x26412 $x25478 $x26738 (or $x1359 $x1532 $x14438 $x14634) $x695 $x42 (<= (+ L_0 (* (- 1.0) A_0) S_0) 0.0) (<= (+ C S_1 (* (- 1.0) S_3)) 0.0) (<= (+ ?x1325 S_5 (* (- 1.0) S_4)) 0.0)))))))))))))))))))))))))))))))))))))))))))))))))))))))))))))))))))))))))))))))))))))))
(check-sat)
